n_tipus_finques = 13;

maxPts = 6;


definicio_finques = array2d(1..13, 1..6, [
  (1,2), (1,3), (2,1), (2,2), (3,2), (0,0),%1
  (1,1), (2,1), (3,1), (4,1), (5,1), (0,0),%2
  (1,1), (2,1), (3,1), (4,1), (4,2), (0,0),%3
  (1,1), (2,1), (3,1), (3,2), (4,2), (0,0),%4
  (1,1), (1,2), (2,1), (2,2), (3,1), (0,0),%5
  (1,1), (1,2), (1,3), (2,2), (3,2), (0,0),%6
  (1,1), (1,3), (2,1), (2,2), (2,3), (0,0),%7
  (1,1), (2,1), (3,1), (3,2), (3,3), (0,0),%8
  (1,1), (1,2), (2,2), (3,2), (3,3), (0,0),%9
  (1,2), (2,1), (2,2), (2,3), (3,2), (0,0),%10
  (1,2), (2,1), (2,2), (3,2), (4,2), (0,0),%11
  (1,1), (1,2), (2,2), (3,2), (3,3), (0,0),%12
  (1,1), (1,2), (1,3), (2,1), (2,2), (2,3) %13
]);

/*
definicio_finques = [
  { 102, 103, 201, 202, 302 },%1
  { 101, 201, 301, 401, 501 },%2
  { 101, 201, 301, 401, 402 },%3
  { 101, 201, 301, 302, 402 },%4
  { 101, 102, 201, 202, 301 },%5
  { 101, 102, 103, 202, 302 },%6
  { 101, 103, 201, 202, 203 },%7
  { 101, 201, 301, 302, 303 },%8
  { 101, 102, 202, 302, 303 },%9
  { 102, 201, 202, 203, 302 },%10
  { 102, 201, 202, 302, 402 },%11
  { 101, 102, 202, 302, 303 },%12
  { 101, 102, 103, 201, 202, 203 }%13
];
*/

height = 3;
width = 7;

parcs = {}; % Posicio en format lineal

camins = {}; % Posicio en format lineal

n_finques = 4;
finques = [3, 5, 8, 13];

n_incompatibles = 0;
incompatibles = []; % indexos de l'array finques

finques_amb_parc = {};